NAME: concorde91
TYPE: TSP
DIMENSION: 25 
EDGE_WEIGHT_TYPE: EUC_2D
NODE_COORD_SECTION
1 62 36
2 75 70
3 97 30
4 94 81
5 80 78
6 31 21
7 9 38
8 20 31
9 3 90
10 58 42
11 15 84
12 12 32
13 14 13
14 92 62
15 26 68
16 54 27
17 65 18
18 15 33
19 85 12
20 29 23
21 55 94
22 88 79
23 65 45
24 40 11
25 2 89
